21
3 0 1 0
3 0 2 0
3 0 5 0
3 0 7 0
3 0 9 0
3 0 21 0
3 0 3 0
3 0 12 0
3 0 17 0
3 0 35 0
3 0 16 0
3 0 20 0
4 0 4 34 0
3 0 15 0
3 0 19 0
4 0 33 22 0
5 0 30 28 32 0
6 0 24 27 18 25 0
5 0 13 10 14 0
5 0 6 23 11 0
7 0 8 26 31 29 36 0
